6 9 19 3 16 18 2 13 7 14 1 0 15 8 4 10 17 12 5 11  
6 3 19 9 16 0 2 7 14 18 15 13 1 4 12 8 5 10 17 11  
6 9 19 7 16 0 2 3 14 18 15 17 1 12 4 13 8 5 10 11  
6 3 19 9 16 0 2 7 14 18 15 13 1 4 12 8 5 10 17 11  
6 3 19 9 16 0 2 7 14 18 15 13 1 12 4 8 5 10 11 17  
6 9 19 3 16 1 2 7 14 18 15 13 0 8 5 4 12 17 10 11  
6 9 19 7 16 0 3 2 14 18 15 13 1 8 4 5 12 10 11 17  
6 9 19 7 16 0 2 3 14 18 15 17 1 12 4 13 8 5 10 11  
9 6 19 16 3 14 13 0 2 7 15 17 1 4 8 18 10 12 5 11  
6 9 19 7 16 0 2 3 14 18 15 17 1 12 5 13 8 4 10 11  
6 16 19 9 3 14 18 0 2 7 15 17 1 12 4 13 8 5 10 11  
6 9 19 3 16 0 2 7 14 18 15 13 1 8 12 4 5 10 17 11  
6 3 19 9 16 0 2 14 4 7 15 17 1 18 13 12 8 5 10 11  
6 3 19 9 16 0 2 14 4 7 15 17 1 18 13 12 8 5 10 11  
6 3 19 9 16 0 2 7 14 18 15 13 1 4 12 5 10 8 17 11  
6 3 19 9 16 8 2 7 17 18 14 1 15 13 0 12 4 5 10 11  
6 3 19 16 9 0 2 7 14 18 15 13 1 12 4 8 5 10 11 17  
6 9 19 7 16 8 2 3 17 18 14 15 13 1 0 12 4 5 10 11  
6 9 19 3 16 0 2 7 14 18 15 13 1 4 12 5 10 8 17 11  
6 16 13 0 9 19 2 3 14 7 15 17 1 4 8 18 10 12 5 11  
6 9 19 16 3 14 13 0 2 7 15 17 1 8 4 18 10 12 5 11  
6 3 19 9 16 14 18 0 2 7 15 17 1 12 13 4 8 5 10 11  
6 9 19 3 7 2 16 17 18 14 15 13 1 8 0 4 12 5 10 11  
6 16 13 0 9 2 19 3 14 7 15 18 17 1 12 4 8 5 10 11  
6 9 19 7 16 0 3 2 14 18 15 17 1 12 13 4 8 5 10 11  
6 9 19 16 7 8 2 3 17 18 14 1 15 13 0 12 4 5 10 11  
6 9 19 3 16 0 2 7 14 18 15 13 1 8 12 4 5 10 17 11  
6 9 19 3 16 0 2 7 14 18 15 13 1 4 12 5 10 11 17 8  
6 9 19 7 16 0 2 3 14 18 15 13 1 12 4 17 8 5 10 11  
9 6 19 3 16 14 13 0 2 7 15 17 1 4 8 18 10 12 5 11  
6 16 19 9 3 14 18 0 2 7 15 17 1 13 4 12 8 5 10 11  
6 9 19 7 16 0 2 3 14 18 15 13 1 12 4 11 8 5 10 17  
6 9 19 3 16 14 18 0 2 7 15 17 1 8 13 4 12 5 10 11  
6 9 19 3 16 8 2 7 17 18 14 15 13 1 0 12 4 5 10 11  
6 9 16 3 19 0 2 7 14 18 15 13 1 4 12 5 10 8 17 11  
6 9 19 16 13 0 2 3 14 7 15 17 4 1 8 18 10 12 5 11  
6 9 19 7 16 0 3 2 14 18 15 13 1 12 4 5 8 10 11 17  
6 9 19 16 18 1 2 3 14 7 15 17 13 0 12 4 8 5 10 11  
